(set-logic ALL)
(set-option :produce-models true)
(define-fun-rec str.toLower ((x String)) String
  (ite (= x "")
      ""
      (let ((Head (str.at x 0)))
        (str.++ 
          (ite (and (<= 65 (str.to_code Head)) 
                     (<= (str.to_code Head) 90))
               (str.from_code (+ (str.to_code Head) 32))
               Head)
          (str.toLower (str.substr x 1 (- (str.len x) 1)))))))
(declare-fun sym6582 () String)
(declare-fun sym807 () String)
(declare-fun sym7456 () String)
(declare-fun sym7830 () String)
(declare-fun sym6369 () String)
(declare-fun sym7018 () String)
(declare-fun sym205 () String)
(declare-fun sym547 () String)
(declare-fun sym6802 () String)
(declare-fun sym1446 () String)
(declare-fun sym1865 () String)
(declare-fun sym2514 () String)
(declare-fun sym5744 () String)
(declare-fun sym4236 () String)
(declare-fun sym2078 () String)
(declare-fun sym5103 () String)
(declare-fun sym3187 () String)
(declare-fun sym1020 () String)
(declare-fun sym6170 () String)
(declare-fun sym161 () String)
(declare-fun sym4691 () String)
(declare-fun sym8013 () String)
(declare-fun sym2291 () String)
(declare-fun sym7225 () String)
(declare-fun sym7647 () String)
(declare-fun sym1659 () String)
(declare-fun sym4904 () String)
(declare-fun sym2727 () String)
(declare-fun sym5957 () String)
(declare-fun sym2940 () String)
(declare-fun sym3810 () String)
(declare-fun sym5316 () String)
(declare-fun sym3611 () String)
(declare-fun sym1233 () String)
(declare-fun sym4465 () String)
(declare-fun sym3396 () String)
(declare-fun sym5531 () String)
(declare-fun sym4023 () String)

(assert (not (= "" sym3187 )))
(assert (not (= (str.toLower (str.substr sym1233  0 1))"q" )))
(assert (not (= (str.toLower (str.substr sym6369  0 1))"p" )))
(assert (not (= (str.toLower (str.substr sym5744  0 1))"p" )))
(assert (not (= (str.toLower (str.substr sym6802  0 1))"g" )))
(assert (not (= "" sym5316 )))
(assert (= (str.toLower (str.substr sym7456  0 1))"k" ))
(assert (not (= (str.toLower (str.substr sym1659  0 1))"q" )))
(assert (not (= "" sym7225 )))
(assert (not (= "" sym4236 )))
(assert (= (str.toLower (str.substr sym7830  0 1))"k" ))
(assert (not (= (str.toLower (str.substr sym7830  0 1))"q" )))
(assert (not (= (str.toLower (str.substr sym6802  0 1))"q" )))
(assert (not (= (str.toLower (str.substr sym1446  0 1))"q" )))
(assert (= (str.toLower (str.substr sym6802  0 1))"h" ))
(assert (= (str.toLower (str.substr sym6582  0 1))"k" ))
(assert (not (= (str.toLower (str.substr sym2291  0 1))"q" )))
(assert (not (= "" "y" )))
(assert (not (= "" sym4691 )))
(assert (not (= (str.toLower (str.substr sym3396  0 1))"q" )))
(assert (= (str.toLower (str.substr sym205  0 1))"y" ))
(assert (= (str.toLower (str.substr sym4465  0 1))"r" ))
(assert (not (= "" sym6369 )))
(assert (not (= (str.toLower (str.substr sym6582  0 1))"q" )))
(assert (= (str.toLower (str.substr sym2078  0 1))"k" ))
(assert (not (= "" "q" )))
(assert (not (= "" sym1659 )))
(assert (= (str.toLower (str.substr sym4236  0 1))"k" ))
(assert (not (= (str.toLower (str.substr sym8013  0 1))"q" )))
(assert (not (= (str.toLower (str.substr sym1446  0 1))"p" )))
(assert (not (= (str.toLower (str.substr sym3187  0 1))"k" )))
(assert (not (= "" sym5531 )))
(assert (= "y" "y" ))
(assert (= (str.toLower (str.substr sym1865  0 1))"k" ))
(assert (not (= (str.toLower (str.substr sym5957  0 1))"q" )))
(assert (= (str.toLower (str.substr sym3611  0 1))"k" ))
(assert (= (str.toLower (str.substr sym5103  0 1))"k" ))
(assert (= (str.toLower (str.substr sym1233  0 1))"k" ))
(assert (not (= "" sym4023 )))
(assert (not (= (str.toLower (str.substr sym2078  0 1))"p" )))
(assert (not (= (str.toLower (str.substr sym1020  0 1))"p" )))
(assert (not (= "" sym807 )))
(assert (not (= "" sym2078 )))
(assert (not (= "" sym4465 )))
(assert (not (= (str.toLower (str.substr sym7225  0 1))"q" )))
(assert (not (= (str.toLower (str.substr sym3396  0 1))"k" )))
(assert (not (= (str.toLower (str.substr sym4465  0 1))"q" )))
(assert (not (= (str.toLower (str.substr sym5531  0 1))"q" )))
(assert (not (= (str.toLower (str.substr sym7456  0 1))"p" )))
(assert (not (= (str.toLower (str.substr sym2940  0 1))"p" )))
(assert (= (str.toLower (str.substr sym5531  0 1))"k" ))
(assert (= (str.toLower (str.substr sym4904  0 1))"k" ))
(assert (not (= (str.toLower (str.substr sym6802  0 1))"k" )))
(assert (not (= (str.toLower (str.substr sym4023  0 1))"p" )))
(assert (not (= (str.toLower (str.substr sym1659  0 1))"p" )))
(assert (not (= "" sym1865 )))
(assert (not (= (str.toLower (str.substr sym5531  0 1))"p" )))
(assert (not (= (str.toLower (str.substr sym3187  0 1))"p" )))
(assert (not (= "" sym5103 )))
(assert (not (= "" sym6170 )))
(assert (= (str.toLower (str.substr sym5316  0 1))"h" ))
(assert (not (= (str.toLower (str.substr sym4465  0 1))"k" )))
(assert (not (= (str.toLower (str.substr sym2291  0 1))"p" )))
(assert (= (str.toLower (str.substr sym807  0 1))"k" ))
(assert (not (= "" sym3810 )))
(assert (not (= "" sym6582 )))
(assert (not (= (str.toLower (str.substr sym3611  0 1))"p" )))
(assert (not (= "" sym4904 )))
(assert (not (= (str.toLower (str.substr sym3810  0 1))"p" )))
(assert (not (= "" sym7647 )))
(assert (not (= "" sym2940 )))
(assert (= (str.toLower (str.substr sym7018  0 1))"k" ))
(assert (not (= (str.toLower (str.substr sym1865  0 1))"p" )))
(assert (not (= (str.toLower (str.substr sym5316  0 1))"l" )))
(assert (not (= (str.toLower (str.substr sym4465  0 1))"p" )))
(assert (not (= (str.toLower (str.substr sym7647  0 1))"p" )))
(assert (not (= (str.toLower (str.substr sym7647  0 1))"q" )))
(assert (not (= (str.toLower (str.substr sym6802  0 1))"r" )))
(assert (not (= (str.toLower (str.substr sym5316  0 1))"r" )))
(assert (not (= (str.toLower (str.substr sym1865  0 1))"q" )))
(assert (not (= (str.toLower (str.substr sym7018  0 1))"p" )))
(assert (= (str.toLower (str.substr sym2291  0 1))"h" ))
(assert (not (= "" sym7456 )))
(assert (not (= (str.toLower (str.substr sym2514  0 1))"p" )))
(assert (not (= "" sym6802 )))
(assert (not (= "" sym1446 )))
(assert (not (= (str.toLower (str.substr sym4691  0 1))"p" )))
(assert (not (= "y" "n" )))
(assert (not (= (str.toLower (str.substr sym5103  0 1))"q" )))
(assert (not (= (str.toLower (str.substr sym2291  0 1))"r" )))
(assert (= (str.toLower (str.substr sym4691  0 1))"k" ))
(assert (not (= "" sym1233 )))
(assert (not (= (str.toLower (str.substr sym1020  0 1))"q" )))
(assert (not (= (str.toLower (str.substr sym5316  0 1))"k" )))
(assert (not (= (str.toLower (str.substr sym2291  0 1))"k" )))
(assert (= (str.toLower (str.substr sym6369  0 1))"k" ))
(assert (= (str.toLower (str.substr sym7647  0 1))"k" ))
(assert (not (= (str.toLower (str.substr sym4691  0 1))"q" )))
(assert (not (= (str.toLower (str.substr sym6369  0 1))"q" )))
(assert (= (str.toLower (str.substr sym8013  0 1))"k" ))
(assert (not (= (str.toLower (str.substr sym4236  0 1))"q" )))
(assert (not (= (str.toLower (str.substr sym3396  0 1))"r" )))
(assert (not (= (str.toLower (str.substr sym547  0 1))"p" )))
(assert (not (= (str.toLower (str.substr sym5103  0 1))"p" )))
(assert (not (= (str.toLower (str.substr sym4904  0 1))"q" )))
(assert (not (= (str.toLower (str.substr sym7456  0 1))"q" )))
(assert (not (= "" sym7830 )))
(assert (not (= (str.toLower (str.substr sym7225  0 1))"p" )))
(assert (not (= (str.toLower (str.substr sym3396  0 1))"g" )))
(assert (not (= (str.toLower (str.substr sym6802  0 1))"l" )))
(assert (not (= (str.toLower (str.substr sym5316  0 1))"q" )))
(assert (not (= (str.toLower (str.substr sym3396  0 1))"p" )))
(assert (not (= (str.toLower (str.substr sym5957  0 1))"p" )))
(assert (not (= (str.toLower (str.substr sym1233  0 1))"p" )))
(assert (not (= (str.toLower (str.substr sym2078  0 1))"q" )))
(assert (not (= "" sym3611 )))
(assert (not (= (str.toLower (str.substr sym2727  0 1))"p" )))
(assert (not (= "" sym3396 )))
(assert (= (str.toLower (str.substr sym5744  0 1))"k" ))
(assert (not (= (str.toLower (str.substr sym2514  0 1))"q" )))
(assert (not (= "" sym8013 )))
(assert (= (str.toLower (str.substr sym2940  0 1))"k" ))
(assert (not (= (str.toLower (str.substr sym3396  0 1))"l" )))
(assert (not (= "" "y" )))
(assert (not (= "" sym2291 )))
(assert (not (= (str.toLower (str.substr sym547  0 1))"q" )))
(assert (not (= (str.toLower (str.substr sym7018  0 1))"q" )))
(assert (not (= (str.toLower (str.substr sym4236  0 1))"p" )))
(assert (not (= "" sym5957 )))
(assert (not (= (str.toLower (str.substr sym3187  0 1))"q" )))
(assert (not (= (str.toLower (str.substr sym2291  0 1))"l" )))
(assert (not (= (str.toLower (str.substr sym5316  0 1))"p" )))
(assert (not (= (str.toLower (str.substr sym6802  0 1))"p" )))
(assert (not (= "" sym1020 )))
(assert (not (= (str.toLower (str.substr sym6582  0 1))"p" )))
(assert (not (= (str.toLower (str.substr sym3810  0 1))"q" )))
(assert (= (str.toLower (str.substr sym3396  0 1))"h" ))
(assert (= (str.toLower (str.substr sym2727  0 1))"k" ))
(assert (not (= "" sym7018 )))
(assert (not (= (str.toLower (str.substr sym6170  0 1))"q" )))
(assert (not (= (str.toLower (str.substr sym807  0 1))"q" )))
(assert (= (str.toLower (str.substr sym6170  0 1))"k" ))
(assert (not (= "" (str.toLower (str.substr sym205  0 1)))))
(assert (not (= (str.toLower (str.substr sym5316  0 1))"g" )))
(assert (= "" "" ))
(assert (= (str.toLower (str.substr sym2514  0 1))"k" ))
(assert (not (= (str.toLower (str.substr sym8013  0 1))"p" )))
(assert (not (= "" sym547 )))
(assert (= (str.toLower (str.substr sym4023  0 1))"k" ))
(assert (not (= "" sym161 )))
(assert (not (= (str.toLower (str.substr sym3187  0 1))"g" )))
(assert (= (str.toLower (str.substr sym1446  0 1))"k" ))
(assert (not (= "" sym2514 )))
(assert (not (= (str.toLower (str.substr sym5744  0 1))"q" )))
(assert (not (= (str.toLower (str.substr sym807  0 1))"p" )))
(assert (not (= (str.toLower (str.substr sym4465  0 1))"g" )))
(assert (not (= "" sym2727 )))
(assert (= (str.toLower (str.substr sym547  0 1))"k" ))
(assert (= (str.toLower (str.substr sym1659  0 1))"k" ))
(assert (not (= "" sym205 )))
(assert (not (= (str.toLower (str.substr sym4904  0 1))"p" )))
(assert (= (str.toLower (str.substr sym3187  0 1))"r" ))
(assert (= (str.toLower (str.substr sym3810  0 1))"k" ))
(assert (not (= (str.toLower (str.substr sym2940  0 1))"q" )))
(assert (not (= (str.toLower (str.substr sym2291  0 1))"g" )))
(assert (not (= (str.toLower (str.substr sym7830  0 1))"p" )))
(assert (not (= (str.toLower (str.substr sym2727  0 1))"q" )))
(assert (not (= (str.toLower (str.substr sym4023  0 1))"q" )))
(assert (not (= (str.toLower (str.substr sym3611  0 1))"q" )))
(assert (= (str.toLower (str.substr sym1020  0 1))"k" ))
(assert (= (str.toLower (str.substr sym7225  0 1))"k" ))
(assert (= (str.toLower (str.substr sym5957  0 1))"k" ))
(assert (not (= "" sym5744 )))
(assert (not (= (str.toLower (str.substr sym6170  0 1))"p" )))
(check-sat)
(get-model)
(exit)
